qbf_easy_train/easy_3741_SAT.qdimacs
p cnf 22 54
a 2 11 14 0
e 1 3 4 5 6 7 8 9 10 12 13 15 16 17 18 19 20 21 22 0
4 2 0
4 -3 0
-2 3 -4 0
-5 -1 0
-5 -4 0
1 4 5 0
-8 -6 0
-8 -7 0
6 7 8 0
9 3 0
9 6 0
-3 -6 -9 0
9 3 -10 0
-9 -3 -10 0
9 -3 10 0
-9 3 10 0
-8 -10 -11 0
8 10 -11 0
-8 10 11 0
8 -10 11 0
5 11 -12 0
-5 -11 -12 0
5 -11 12 0
-5 11 12 0
-13 6 -14 0
13 -6 -14 0
-13 -6 14 0
13 6 14 0
15 -4 0
15 -14 0
4 14 -15 0
-2 -1 -16 0
2 1 -16 0
-2 1 16 0
2 -1 16 0
19 -17 0
19 18 0
17 -18 -19 0
20 -16 0
20 -19 0
16 19 -20 0
21 15 0
21 -20 0
-15 20 -21 0
12 21 -22 0
-12 -21 -22 0
12 -21 22 0
-12 21 22 0
6 -4 -1 -10 -22 16 0
-7 -6 5 3 -13 -18 21 0
9 2 -4 -1 18 10 14 0
16 -11 4 0
11 -2 -22 6 16 9 -8 0
22 0
