sat_easy_train/easy_3741_SAT.dimacs
p cnf 52 138
-1 2 -3 0
1 -2 -3 0
-1 -2 3 0
1 2 3 0
5 -3 0
5 4 0
3 -4 -5 0
-7 5 0
-7 6 0
-5 -6 7 0
-10 -8 0
-10 -9 0
8 9 10 0
12 10 0
12 -11 0
-10 11 -12 0
-13 7 0
-13 -12 0
-7 12 13 0
-2 -9 -14 0
2 9 -14 0
-2 9 14 0
2 -9 14 0
15 -5 0
15 -14 0
5 14 -15 0
17 -14 0
17 16 0
14 -16 -17 0
-15 -17 -18 0
15 17 -18 0
-15 17 18 0
15 -17 18 0
-13 18 -19 0
13 -18 -19 0
-13 -18 19 0
13 18 19 0
-20 9 0
-20 -9 0
-20 -21 -22 0
20 21 -22 0
-20 21 22 0
20 -21 22 0
-24 -23 0
-24 -11 0
23 11 24 0
25 22 0
25 -24 0
-22 24 -25 0
26 -19 0
26 -25 0
19 25 -26 0
28 -27 0
28 6 0
27 -6 -28 0
31 -14 0
31 -30 0
14 30 -31 0
32 -29 0
32 31 0
29 -31 -32 0
-33 28 0
-33 32 0
-28 -32 33 0
34 -26 0
34 33 0
26 -33 -34 0
23 35 -36 0
-23 -35 -36 0
23 -35 36 0
-23 35 36 0
-37 -10 0
-37 -3 0
10 3 37 0
36 -37 -38 0
-36 37 -38 0
36 37 38 0
-36 -37 38 0
-40 35 0
-40 -39 0
-35 39 40 0
-41 38 0
-41 -40 0
-38 40 41 0
42 -23 -43 0
-42 23 -43 0
42 23 43 0
-42 -23 43 0
44 -39 0
44 9 0
39 -9 -44 0
43 -44 -45 0
-43 44 -45 0
43 44 45 0
-43 -44 45 0
-17 42 -46 0
17 -42 -46 0
-17 -42 46 0
17 42 46 0
47 9 0
47 -31 0
-9 31 -47 0
3 -47 -48 0
-3 47 -48 0
3 47 48 0
-3 -47 48 0
49 -46 0
49 48 0
46 -48 -49 0
-45 -49 -50 0
45 49 -50 0
-45 49 50 0
45 -49 50 0
-51 41 0
-51 -50 0
-41 50 51 0
52 -34 0
52 -51 0
34 51 -52 0
-3 29 34 16 21 0
22 -19 0
28 8 -31 9 10 46 0
33 -6 26 -39 1 0
-49 -7 -33 24 0
48 -28 -3 -9 36 0
-51 33 40 -18 19 -15 0
-38 10 26 -18 0
-18 -12 19 -41 0
-11 46 0
-38 -40 0
50 39 5 -9 0
10 -40 0
16 -47 27 -37 0
28 33 13 0
-44 -35 0
-1 39 -19 0
14 40 12 0
52 0
